NAME lp_typeD_4815
OBJSENSE MAX
ROWS
 N  OBJ
 L  c0      
 G  c1      
 G  c2      
 L  c_key_upper
 G  c_key_lower
 G  _chain_constr_1
 G  _chain_constr_2
 G  _chain_constr_3
 G  _chain_constr_4
 G  _chain_constr_5
 G  _chain_cycle
COLUMNS
    x0        OBJ       5.2158462858548427e-01
    x0        c0        8.1782083417786589e-01
    x0        c1        1.1980919828759966e+00
    x0        c2        1.3658739120579007e+00
    x0        c_key_upper  1.7339451719057617e+00
    x0        c_key_lower  1.7339451719057617e+00
    x1        OBJ       7.1847712765104133e-01
    x1        c0        6.2656041001255469e-01
    x1        c1        8.6335842204681112e-01
    x1        c2        1.5610061759614051e+00
    x1        c_key_upper  1.1284046964173506e+00
    x1        c_key_lower  1.1284046964173506e+00
    x2        OBJ       9.5846895666908682e-01
    x2        c0        9.7038581883245056e-01
    x2        c1        1.4583500517133683e+00
    x2        c2        6.0864031812136909e-01
    x2        c_key_upper  1.2317002109767368e+00
    x2        c_key_lower  1.2317002109767368e+00
    x3        OBJ       7.4682971587379710e-01
    x3        c0        1.5623003720121562e+00
    x3        c1        9.0326544951958132e-01
    x3        c2        1.3196337448120319e+00
    x3        c_key_upper  1.2167801488894012e+00
    x3        c_key_lower  1.2167801488894012e+00
    x4        OBJ       9.4925143341122142e-01
    x4        c0        8.0645867402953952e-01
    x4        c1        1.7950563796795582e+00
    x4        c2        1.4030141821855828e+00
    x4        c_key_upper  1.6071112252811663e+00
    x4        c_key_lower  1.6071112252811663e+00
    _chain_var_0  _chain_constr_1  -1
    _chain_var_0  _chain_cycle  1
    _chain_var_1  _chain_constr_1  1
    _chain_var_1  _chain_constr_2  -1
    _chain_var_2  _chain_constr_2  1
    _chain_var_2  _chain_constr_3  -1
    _chain_var_3  _chain_constr_3  1
    _chain_var_3  _chain_constr_4  -1
    _chain_var_4  _chain_constr_4  1
    _chain_var_4  _chain_constr_5  -1
    _chain_var_5  _chain_constr_5  1
    _chain_var_5  _chain_cycle  -1
RHS
    RHS1      c0        1.9935691465189215e+01
    RHS1      c1        7.4610214794226506e+00
    RHS1      c2        1.0808207599105726e+01
    RHS1      c_key_upper  3.4589707267352082e+01
    RHS1      c_key_lower  1.7294853633676041e+01
    RHS1      _chain_constr_1  10
    RHS1      _chain_constr_2  10
    RHS1      _chain_constr_3  10
    RHS1      _chain_constr_4  10
    RHS1      _chain_constr_5  10
    RHS1      _chain_cycle  10
BOUNDS
 UP BND1      x0        10
 UP BND1      x1        10
 UP BND1      x2        10
 UP BND1      x3        10
 UP BND1      x4        10
 UP BND1      _chain_var_0  100
 UP BND1      _chain_var_1  100
 UP BND1      _chain_var_2  100
 UP BND1      _chain_var_3  100
 UP BND1      _chain_var_4  100
 UP BND1      _chain_var_5  100
ENDATA
